p edge 40 121
e 1 4
e 1 9
e 1 17
e 1 19
e 1 20
e 1 27
e 1 32
e 1 33
e 2 5
e 2 16
e 2 18
e 2 25
e 2 26
e 2 30
e 2 31
e 2 34
e 2 39
e 3 4
e 3 6
e 3 10
e 3 11
e 3 17
e 3 21
e 4 15
e 4 19
e 4 20
e 4 22
e 4 26
e 5 8
e 5 9
e 5 12
e 5 15
e 5 16
e 5 18
e 5 22
e 5 24
e 5 25
e 5 27
e 5 28
e 5 30
e 5 34
e 5 38
e 5 39
e 6 7
e 6 10
e 6 11
e 6 15
e 6 26
e 7 8
e 7 11
e 7 13
e 7 14
e 7 17
e 7 26
e 7 29
e 8 15
e 8 16
e 8 17
e 8 36
e 9 12
e 9 19
e 9 24
e 9 27
e 9 28
e 9 38
e 10 11
e 10 15
e 10 17
e 11 13
e 11 14
e 11 15
e 11 17
e 11 37
e 12 18
e 12 23
e 12 24
e 12 25
e 12 27
e 12 28
e 12 30
e 12 31
e 12 38
e 12 39
e 13 14
e 13 19
e 14 19
e 15 22
e 15 26
e 16 18
e 16 31
e 16 36
e 17 20
e 17 33
e 18 25
e 18 27
e 18 30
e 18 31
e 19 20
e 19 27
e 20 33
e 21 22
e 22 26
e 22 34
e 23 24
e 23 29
e 23 37
e 24 27
e 24 28
e 24 38
e 24 39
e 25 27
e 25 30
e 25 31
e 28 38
e 28 39
e 30 31
e 30 39
e 31 39
e 32 33
e 35 40
e 38 39
